
Welcome to IBM(R) ILOG(R) CPLEX(R) Interactive Optimizer 12.7.1.0
  with Simplex, Mixed Integer & Barrier Optimizers
5725-A06 5725-A29 5724-Y48 5724-Y49 5724-Y54 5724-Y55 5655-Y21
Copyright IBM Corp. 1988, 2017.  All Rights Reserved.

Type 'help' for a list of available commands.
Type 'help' followed by a command name for more
information on commands.

CPLEX> New value for default parallel thread count: 1
CPLEX> New value for time limit in seconds: 3600
CPLEX> Problem 'eil76_m37.lp' read.
Read time = 0.28 sec. (23.11 ticks)
CPLEX> CPXPARAM_TimeLimit                               3600
CPXPARAM_Threads                                 1
CPXPARAM_Read_APIEncoding                        "UTF-8"
Tried aggregator 1 time.
MIP Presolve modified 216450 coefficients.
Reduced MIP has 8586 rows, 210976 columns, and 1260331 nonzeros.
Reduced MIP has 210900 binaries, 75 generals, 0 SOSs, and 0 indicators.
Presolve time = 0.76 sec. (966.22 ticks)
Tried aggregator 1 time.
Reduced MIP has 8586 rows, 210976 columns, and 1260331 nonzeros.
Reduced MIP has 210900 binaries, 76 generals, 0 SOSs, and 0 indicators.
Presolve time = 0.82 sec. (670.41 ticks)
Probing time = 0.24 sec. (100.55 ticks)
Clique table members: 413168.
MIP emphasis: balance optimality and feasibility.
MIP search method: dynamic search.
Parallel mode: none, using 1 thread.
Root relaxation solution time = 219.92 sec. (334838.50 ticks)

        Nodes                                         Cuts/
   Node  Left     Objective  IInf  Best Integer    Best Bound    ItCnt     Gap

      0     0       45.9016   323                     45.9016   264852         
      0     0       46.5454   323                    Cuts: 65   289845         
      0     0       47.0000   438                    Cuts: 79   324997         
      0     0       47.0000   512                    Cuts: 98   351078         
      0     0       47.0000   448                    Cuts: 38   371778         
      0     0       47.0000   507                   Cuts: 114   407176         
Heuristic still looking.
Heuristic still looking.
      0     2       47.0000   309                     47.0000   407176         
Elapsed time = 951.82 sec. (1437328.78 ticks, tree = 0.01 MB, solutions = 0)
      1     3       47.0000   355                     47.0000   407583         
      2     4       47.0000   358                     47.0000   408303         
      3     5       47.0000   376                     47.0000   408605         
      4     6       47.0000   407                     47.0000   424474         
      5     7       47.0000   370                     47.0000   439380         
      6     8       47.0000   358                     47.0000   439457         
      7     9       47.0000   378                     47.0000   439613         
      8    10       47.0000   349                     47.0000   439852         
      9    11       47.0000   355                     47.0000   440432         
     10    12       47.0000   358                     47.0000   441067         
Elapsed time = 1019.74 sec. (1553150.34 ticks, tree = 1.73 MB, solutions = 0)
     11    13       47.0000   352                     47.0000   441740         
     12    14       47.0000   332                     47.0000   442352         
     13    15       47.0000   336                     47.0000   449639         
     14    16       47.0000   312                     47.0000   459274         
     15    17       47.0000   324                     47.0000   460063         
     16    18       47.0000   364                     47.0000   462948         
     17    19       47.0000   340                     47.0000   463233         
     18    20       47.0000   311                     47.0000   468988         
     21    23       47.0000   313                     47.0000   473169         
     24    25       47.0000   300                     47.0000   473614         
Elapsed time = 1072.41 sec. (1638341.64 ticks, tree = 4.08 MB, solutions = 0)
     27    28       47.0000   316                     47.0000   476798         
     29    30       47.0000   327                     47.0000   477103         
     30    31       47.0000   330                     47.0000   478542         
     31    32       47.0000   342                     47.0000   478951         
     32    33       47.0000   319                     47.0000   479738         
     33    34       47.0000   299                     47.0000   482123         
     35    36       47.0000   311                     47.0000   482825         
     37    38       47.0000   296                     47.0000   483191         
     39    40       47.0698   289                     47.0000   487612         
     43    44       47.0000   305                     47.0000   487980         
Elapsed time = 1092.70 sec. (1673493.62 ticks, tree = 7.54 MB, solutions = 0)
     49    49       54.6154   291                     47.0000   491250         
     54    52       47.0000   303                     47.0000   492456         
     55    53       47.0181   294                     47.0000   494084         
     59    57       47.0598   293                     47.0000   494613         
     65    63       47.1548   309                     47.0000   494951         
     71    69       47.2029   301                     47.0000   495281         
     79    77       52.0000   213                     47.0000   495570         
     90    85       93.0000   142                     47.0000   495988         
     96    91       52.0000   306                     47.0000   496546         
    100    95       52.0000   290                     47.0000   497241         
Elapsed time = 1105.12 sec. (1694162.63 ticks, tree = 16.75 MB, solutions = 0)
    106    97       52.0000   297                     47.0000   501478         
    112   101       52.0000   236                     47.0000   501880         
    117   105       59.8718   177                     47.0000   502375         
    125   111       52.0000   229                     47.0000   502789         
    130   116       56.7179   208                     47.0000   505705         
    152   132       88.7949   140                     47.0000   506058         
    168   141      105.3077   106                     47.0000   506371         
    194   161      164.0000    82                     47.0000   506814         
*   218   157      integral     0      164.0000       47.0000   507188   71.34%
    219   157       49.8846   320      164.0000       47.0000   509850   71.34%
    221   158       50.8205   303      164.0000       47.0000   510316   71.34%
Elapsed time = 1119.88 sec. (1717555.86 ticks, tree = 28.77 MB, solutions = 1)
    230   164       69.1923   200      164.0000       47.0000   510708   71.34%
    250   180      113.1154   112      164.0000       47.0000   510970   71.34%
    270   191      157.5000   106      164.0000       47.0000   511220   71.34%
    272   191       82.3077   289      164.0000       47.0000   511792   71.34%
    285   202      120.5769   225      164.0000       47.0000   512147   71.34%
    295   208      160.8846   239      164.0000       47.0000   512430   71.34%
    296   208       48.7821   316      164.0000       47.0000   520513   71.34%
    297   209       50.2009   296      164.0000       47.0000   527399   71.34%
    298   209       50.2009   308      164.0000       47.0000   527898   71.34%
    300   211       64.2308   192      164.0000       47.0000   528064   71.34%
Elapsed time = 1143.63 sec. (1753737.65 ticks, tree = 38.54 MB, solutions = 1)
    316   225       72.2821   206      164.0000       47.0000   528405   71.34%
    348   255       91.9231   185      164.0000       47.0000   528627   71.34%
    380   287      119.4615   140      164.0000       47.0000   528845   71.34%
    402   309      146.5769   182      164.0000       47.0000   529121   71.34%
    427   332      161.8462   131      164.0000       47.0000   529397   71.34%
    429   332       60.2308   263      164.0000       47.0000   535418   71.34%
    430   333       60.2308   286      164.0000       47.0000   536725   71.34%
    440   340      100.0128   194      164.0000       47.0000   537111   71.34%
    450   349      141.6282   154      164.0000       47.0000   537535   71.34%
    463   359       49.0000   335      164.0000       47.0000   542428   71.34%
Elapsed time = 1162.11 sec. (1783100.59 ticks, tree = 66.11 MB, solutions = 1)
    464   359       49.0000   337      164.0000       47.0000   544701   71.34%
    465   359       49.0000   282      164.0000       47.0000   552885   71.34%
    466   360       49.0000   293      164.0000       47.0000   553431   71.34%
    467   361       49.0000   302      164.0000       47.0000   561830   71.34%
    479   371       60.0000   192      164.0000       47.0000   562239   71.34%
    494   385       60.0000   172      164.0000       47.0000   562646   71.34%
    505   393       60.0000   186      164.0000       47.0000   563225   71.34%
    515   403       60.0000   203      164.0000       47.0000   563850   71.34%
    526   414       60.0000   187      164.0000       47.0000   564290   71.34%
    527   413    infeasible            164.0000       47.0000   567135   71.34%
Elapsed time = 1192.79 sec. (1833159.77 ticks, tree = 76.43 MB, solutions = 1)
*   528+  410                          162.0000       47.0000            70.99%
    528   411       48.8782   322      162.0000       47.0000   571596   70.99%
    529   411       49.4487   335      162.0000       47.0000   575217   70.99%
    545   425       95.5385   157      162.0000       47.0000   575544   70.99%
    573   452      113.0000   123      162.0000       47.0000   575788   70.99%
    606   483      138.7179   124      162.0000       47.0000   575941   70.99%
    623   495       47.1865   314      162.0000       47.0000   581112   70.99%
    628   499       48.8590   276      162.0000       47.0000   581493   70.99%
    630   501       48.8590   352      162.0000       47.0000   582465   70.99%
    631   502       48.8590   352      162.0000       47.0000   589165   70.99%
    633   504       48.8590   319      162.0000       47.0000   594037   70.99%
Elapsed time = 1284.61 sec. (1967658.83 ticks, tree = 93.09 MB, solutions = 2)
    635   506       48.8590   328      162.0000       47.0000   600461   70.99%
    636   507       48.8590   324      162.0000       47.0000   612139   70.99%
    638   509       47.0000   291      162.0000       47.0000   878100   70.99%
    639   509       47.0000   300      162.0000       47.0000   878540   70.99%
    640   510       47.0000   405      162.0000       47.0000   908934   70.99%
    641   511       47.0000   380      162.0000       47.0000   927679   70.99%
    642   512       47.0000   357      162.0000       47.0000   930907   70.99%
    643   513       47.0000   396      162.0000       47.0000   931229   70.99%
    644   514       47.0000   363      162.0000       47.0000   946118   70.99%
    645   514       47.0000   393      162.0000       47.0000   961166   70.99%
Elapsed time = 3403.43 sec. (5018720.00 ticks, tree = 94.46 MB, solutions = 2)
    646   515       47.0000   344      162.0000       47.0000   961829   70.99%
    647   516       47.0000   350      162.0000       47.0000   962111   70.99%
    648   517       47.0000   405      162.0000       47.0000   975693   70.99%
    649   518       47.0000   346      162.0000       47.0000   983777   70.99%
    650   518       47.0000   349      162.0000       47.0000   983871   70.99%
    651   518       47.0000   340      162.0000       47.0000   984623   70.99%

Clique cuts applied:  1
Cover cuts applied:  2
Mixed integer rounding cuts applied:  15
Zero-half cuts applied:  18
Gomory fractional cuts applied:  1

Root node processing (before b&c):
  Real time             =  894.30 sec. (1395040.92 ticks)
Sequential b&c:
  Real time             = 2705.73 sec. (3928261.85 ticks)
                          ------------
Total (root+branch&cut) = 3600.03 sec. (5323302.77 ticks)

Solution pool: 2 solutions saved.

MIP - Time limit exceeded, integer feasible:  Objective =  1.6200000000e+02
Current MIP best bound =  4.7000000000e+01 (gap = 115, 70.99%)
Solution time = 3600.03 sec.  Iterations = 984623  Nodes = 652 (518)
Deterministic time = 5323303.38 ticks  (1478.68 ticks/sec)

CPLEX> Incumbent solution
Variable Name           Solution Value
y                           162.000000
x23                           1.000000
x5788                         1.000000
x11568                        1.000000
x17368                        1.000000
x23162                        1.000000
x28951                        1.000000
x34719                        1.000000
x40465                        1.000000
x46232                        1.000000
x51988                        1.000000
x57809                        1.000000
x63543                        1.000000
x69315                        1.000000
x75097                        1.000000
x80889                        1.000000
x86697                        1.000000
x92477                        1.000000
x98259                        1.000000
x104036                       1.000000
x109761                       1.000000
x115559                       1.000000
x121348                       1.000000
x127115                       1.000000
x132882                       1.000000
x138650                       1.000000
x144441                       1.000000
x150204                       1.000000
x156016                       1.000000
x161778                       1.000000
x167577                       1.000000
x173302                       1.000000
x179112                       1.000000
x184908                       1.000000
x190650                       1.000000
x196390                       1.000000
x202211                       1.000000
x208001                       1.000000
x1673                         1.000000
x9197                         1.000000
x12693                        1.000000
x20065                        1.000000
x23789                        1.000000
x33365                        1.000000
x38001                        1.000000
x41193                        1.000000
x47957                        1.000000
x52213                        1.000000
x61409                        1.000000
x66805                        1.000000
x69465                        1.000000
x77369                        1.000000
x84969                        1.000000
x91049                        1.000000
x96977                        1.000000
x103209                       1.000000
x109061                       1.000000
x110961                       1.000000
x118409                       1.000000
x123273                       1.000000
x127985                       1.000000
x138017                       1.000000
x140525                       1.000000
x146605                       1.000000
x152229                       1.000000
x160741                       1.000000
x167125                       1.000000
x170089                       1.000000
x174345                       1.000000
x183997                       1.000000
x190533                       1.000000
x193725                       1.000000
x201629                       1.000000
x205961                       1.000000
x210749                       1.000000
x130266                       1.000000
x128597                       1.000000
x172984                       1.000000
x27446                        1.000000
x44395                        1.000000
x131113                       1.000000
x42878                        1.000000
x174891                       1.000000
x165470                       1.000000
x168055                       1.000000
x39312                        1.000000
x132717                       1.000000
x125199                       1.000000
x20321                        1.000000
x146786                       1.000000
x75727                        1.000000
x149980                       1.000000
x168907                       1.000000
x135392                       1.000000
x20861                        1.000000
x212838                       1.000000
x64036                        1.000000
x36145                        1.000000
x6658                         1.000000
x19503                        1.000000
x127424                       1.000000
x41473                        1.000000
x130698                       1.000000
x82743                        1.000000
x90955                        1.000000
x34260                        1.000000
x39430                        1.000000
x183302                       1.000000
x135577                       1.000000
x196834                       1.000000
x163092                       1.000000
x147514                       1.000000
x127223                       1.000000
u2                            1.000000
u3                           38.000000
u5                           35.000000
u6                            1.000000
u8                           36.000000
u10                           1.000000
u11                           3.000000
u13                          38.000000
u14                           1.000000
u15                           1.000000
u18                           1.000000
u19                          37.000000
u20                           2.000000
u21                           3.000000
u26                          38.000000
u27                           1.000000
u29                           1.000000
u30                           3.000000
u31                           1.000000
u32                           2.000000
u35                          38.000000
u36                           1.000000
u37                           3.000000
u38                           1.000000
u44                           1.000000
u45                           3.000000
u46                           1.000000
u47                           2.000000
u48                          36.000000
u49                          38.000000
u51                          38.000000
u53                           2.000000
u54                          37.000000
u55                           1.000000
u59                           1.000000
u60                           1.000000
u62                           1.000000
u66                           1.000000
u69                           2.000000
u70                           2.000000
u72                           2.000000
u74                           1.000000
u75                           2.000000
All other variables in the range 1-210976 are 0.
CPLEX> 